Mg1 I2
1.0
4.209498 0.000000 0.000000
-2.104749 3.645532 0.000000
0.000000 0.000000 7.731276
Mg I
1 2
direct
0.000000 0.000000 0.000000 Mg
0.333333 0.666667 0.216461 I
0.666667 0.333333 0.783539 I
