Al4 Cl12
1.0
5.760008 0.000000 -1.773581
0.000000 10.432604 0.000000
0.000000 0.000000 6.653236
Al Cl
4 12
direct
0.500000 0.666667 0.000000 Al
0.500000 0.333383 0.000000 Al
0.000000 0.166617 0.000000 Al
0.000000 0.833383 0.000000 Al
0.795473 0.000000 0.788733 Cl
0.204527 0.000000 0.211267 Cl
0.749911 0.181591 0.210368 Cl
0.250088 0.181591 0.789632 Cl
0.250088 0.818408 0.789632 Cl
0.749911 0.818408 0.210368 Cl
0.295473 0.500000 0.788733 Cl
0.704527 0.500000 0.211267 Cl
0.249912 0.681592 0.210368 Cl
0.750089 0.681592 0.789632 Cl
0.750089 0.318408 0.789632 Cl
0.249912 0.318408 0.210368 Cl
