Sc6 Cl18
1.0
6.493234 0.000000 0.000000
-3.246617 5.623306 0.000000
0.000000 0.000000 19.324753
Sc Cl
6 18
direct
0.333333 0.666667 0.332731 Sc
0.333333 0.666667 0.000603 Sc
0.000000 0.000000 0.666064 Sc
0.000000 0.000000 0.333936 Sc
0.666667 0.333333 0.999397 Sc
0.666667 0.333333 0.667269 Sc
0.667243 0.702956 0.259022 Cl
0.297044 0.964286 0.259022 Cl
0.630953 0.000576 0.074311 Cl
0.369623 0.369047 0.074311 Cl
0.999424 0.630377 0.074311 Cl
0.035714 0.332757 0.259022 Cl
0.333909 0.036290 0.592356 Cl
0.963710 0.297620 0.592356 Cl
0.297620 0.333909 0.407644 Cl
0.036290 0.702380 0.407644 Cl
0.666091 0.963710 0.407644 Cl
0.702380 0.666091 0.592356 Cl
0.000576 0.369623 0.925689 Cl
0.630377 0.630953 0.925689 Cl
0.964286 0.667243 0.740978 Cl
0.702956 0.035714 0.740978 Cl
0.332757 0.297044 0.740978 Cl
0.369047 0.999424 0.925689 Cl
