Sr1 Mg2 As2
1.0
2.221272 -3.847357 0.000000
2.221272 3.847357 0.000000
0.000000 0.000000 7.449172
Sr Mg As
1 2 2
direct
0.000000 0.000000 0.000000 Sr
0.666667 0.333333 0.371578 Mg
0.333333 0.666667 0.628422 Mg
0.333333 0.666667 0.260884 As
0.666667 0.333333 0.739116 As
