pymatgen v2020.1.28 with grid density = 724 / atom
0
Monkhorst
4 4 4
