pymatgen v2019.10.16 with grid density = 399 / atom
0
Gamma
5 5 1
