pymatgen v2019.10.16 with grid density = 392 / atom
0
Gamma
4 3 2
