Mg2 Ge2 O6
1.0
4.862396 -2.506540 0.000000
4.862396 2.506540 0.000000
3.570288 0.000000 4.144718
Mg Ge O
2 2 6
direct
0.641036 0.641036 0.641036 Mg
0.358964 0.358964 0.358964 Mg
0.846672 0.846672 0.846672 Ge
0.153328 0.153328 0.153328 Ge
0.559483 0.953996 0.219345 O
0.953996 0.219345 0.559483 O
0.219345 0.559483 0.953996 O
0.440517 0.046004 0.780655 O
0.780655 0.440517 0.046004 O
0.046004 0.780655 0.440517 O
