Tl1 Cl1
1.0
0.000000 3.265865 3.265865
3.265865 0.000000 3.265865
3.265865 3.265865 0.000000
Tl Cl
1 1
direct
0.000000 0.000000 0.000000 Tl
0.500000 0.500000 0.500000 Cl
