Ca4 Sb2 O1
1.0
-2.355338 2.355338 8.193530
2.355338 -2.355338 8.193530
2.355338 2.355338 -8.193530
Ca Sb O
4 2 1
direct
0.665304 0.665304 0.000000 Ca
0.334696 0.334696 0.000000 Ca
0.000000 0.500000 0.500000 Ca
0.500000 0.000000 0.500000 Ca
0.860462 0.860462 0.000000 Sb
0.139538 0.139538 0.000000 Sb
0.500000 0.500000 0.000000 O
