Ti4 O8
1.0
1.883468 6.153577 0.000000
-1.883468 6.153577 0.000000
0.000000 1.928326 6.328967
Ti O
4 8
direct
0.195286 0.195286 0.716238 Ti
0.900071 0.900071 0.710398 Ti
0.804714 0.804714 0.283762 Ti
0.099929 0.099929 0.289602 Ti
0.941648 0.941648 0.369979 O
0.361932 0.361932 0.706603 O
0.867189 0.867189 0.004709 O
0.058352 0.058352 0.630021 O
0.263489 0.263489 0.347500 O
0.132811 0.132811 0.995291 O
0.736511 0.736511 0.652500 O
0.638068 0.638068 0.293397 O
