Sr2 Ti1 O4
1.0
-1.963869 1.963869 6.341402
1.963869 -1.963869 6.341402
1.963869 1.963869 -6.341402
Sr Ti O
2 1 4
direct
0.645289 0.645289 0.000000 Sr
0.354711 0.354711 0.000000 Sr
0.000000 0.000000 0.000000 Ti
0.841775 0.841775 0.000000 O
0.158225 0.158225 0.000000 O
0.500000 0.000000 0.500000 O
0.000000 0.500000 0.500000 O
