pymatgen v2020.1.28 with grid density = 1538 / atom
0
Gamma
8 5 5
