Pb2 Cl2 F2
1.0
4.156022 0.000000 0.000000
0.000000 4.156022 0.000000
0.000000 0.000000 7.337137
Pb Cl F
2 2 2
direct
0.000000 0.500000 0.793949 Pb
0.500000 0.000000 0.206051 Pb
0.500000 0.000000 0.649219 Cl
0.000000 0.500000 0.350781 Cl
0.500000 0.500000 0.000000 F
0.000000 0.000000 0.000000 F
