Au4 I4
1.0
4.605302 0.000000 0.000000
0.000000 4.605302 0.000000
0.000000 0.000000 15.009214
Au I
4 4
direct
0.750000 0.250000 0.750000 Au
0.250000 0.250000 0.250000 Au
0.750000 0.750000 0.250000 Au
0.250000 0.750000 0.750000 Au
0.000000 0.500000 0.612669 I
0.000000 0.500000 0.112669 I
0.500000 0.000000 0.387331 I
0.500000 0.000000 0.887331 I
