Cr6 Br18
1.0
6.446064 0.000000 0.000000
-3.223032 5.582455 0.000000
0.000000 0.000000 20.485237
Cr Br
6 18
direct
0.333333 0.666667 0.333239 Cr
0.333333 0.666667 0.000095 Cr
0.000000 0.000000 0.666572 Cr
0.000000 0.000000 0.333428 Cr
0.666667 0.333333 0.999905 Cr
0.666667 0.333333 0.666761 Cr
0.308083 0.333102 0.263214 Br
0.025020 0.691917 0.263214 Br
0.666898 0.974980 0.263214 Br
0.641647 0.641416 0.070119 Br
0.999769 0.358353 0.070119 Br
0.358584 0.000231 0.070119 Br
0.974749 0.666436 0.596548 Br
0.691686 0.025251 0.596548 Br
0.333564 0.308314 0.596548 Br
0.308314 0.974749 0.403452 Br
0.666436 0.691686 0.403452 Br
0.025251 0.333564 0.403452 Br
0.641416 0.999769 0.929881 Br
0.358353 0.358584 0.929881 Br
0.000231 0.641647 0.929881 Br
0.974980 0.308083 0.736786 Br
0.333102 0.025020 0.736786 Br
0.691917 0.666898 0.736786 Br
