ALGO = Fast
EDIFF = 0.0004
ENCUT = 520
IBRION = 2
ICHARG = 1
ISIF = 3
ISMEAR = -5
ISPIN = 2
LDAU = True
LDAUJ = 0 0 0
LDAUL = 2 0 0
LDAUPRINT = 1
LDAUTYPE = 2
LDAUU = 3.7 0 0
LMAXMIX = 4
LORBIT = 11
LREAL = Auto
LWAVE = False
MAGMOM = 1*-2.987 1*2.987 2*-0.0 1*0.052 1*-0.052 1*0.052 1*-0.052
NELM = 100
NSW = 99
PREC = Accurate
SIGMA = 0.05
