Cr2 Ag2 O4
1.0
-1.574520 2.626422 0.000000
-1.403278 -2.626422 0.714091
4.345507 2.605099 11.555166
Cr Ag O
2 2 4
direct
0.750000 0.500000 0.250000 Cr
0.250000 0.500000 0.750000 Cr
0.000000 0.000000 0.000000 Ag
0.500000 0.000000 0.500000 Ag
0.443392 0.886784 0.330177 O
0.943392 0.886784 0.830177 O
0.056608 0.113216 0.169823 O
0.556608 0.113216 0.669823 O
