pymatgen v2020.1.28 with grid density = 1216 / atom
0
Gamma
5 5 2
