Ta6 N10
1.0
1.952384 -5.164027 0.000000
1.952384 5.164027 0.000000
0.000000 0.000000 10.357106
Ta N
6 10
direct
0.196950 0.803050 0.750000 Ta
0.866372 0.133628 0.940570 Ta
0.133628 0.866372 0.059430 Ta
0.133628 0.866372 0.440570 Ta
0.803050 0.196950 0.250000 Ta
0.866372 0.133628 0.559430 Ta
0.046701 0.953299 0.880746 N
0.691726 0.308274 0.074069 N
0.308274 0.691726 0.925931 N
0.691726 0.308274 0.425931 N
0.237436 0.762564 0.250000 N
0.308274 0.691726 0.574069 N
0.046701 0.953299 0.619254 N
0.953299 0.046701 0.380746 N
0.762564 0.237436 0.750000 N
0.953299 0.046701 0.119254 N
