Ta4 I8 Cl8
1.0
7.597050 0.000000 0.000000
0.000000 8.875376 0.000000
0.000000 0.000000 10.837272
Ta I Cl
4 8 8
direct
0.290810 0.000000 0.000000 Ta
0.709190 0.000000 0.000000 Ta
0.790810 0.500000 0.500000 Ta
0.209190 0.500000 0.500000 Ta
0.000000 0.000000 0.824040 I
0.000000 0.000000 0.175960 I
0.500000 0.000000 0.789562 I
0.500000 0.000000 0.210438 I
0.500000 0.500000 0.324040 I
0.500000 0.500000 0.675960 I
0.000000 0.500000 0.289562 I
0.000000 0.500000 0.710438 I
0.769992 0.238690 0.500000 Cl
0.769992 0.761310 0.500000 Cl
0.230008 0.238690 0.500000 Cl
0.230008 0.761310 0.500000 Cl
0.269992 0.738690 0.000000 Cl
0.269992 0.261310 0.000000 Cl
0.730008 0.738690 0.000000 Cl
0.730008 0.261310 0.000000 Cl
