Ga4 Cl12
1.0
10.065478 0.000000 -7.414513
0.000000 7.485989 0.000000
0.000000 0.000000 7.445987
Ga Cl
4 12
direct
0.344749 0.000000 0.915695 Ga
0.155251 0.500000 0.084305 Ga
0.844749 0.500000 0.915695 Ga
0.655251 0.000000 0.084305 Ga
0.000000 0.278747 0.000000 Cl
0.000000 0.721253 0.000000 Cl
0.689436 0.000000 0.835088 Cl
0.810564 0.500000 0.164912 Cl
0.313092 0.500000 0.430635 Cl
0.186908 0.000000 0.569365 Cl
0.500000 0.778747 0.000000 Cl
0.500000 0.221253 0.000000 Cl
0.189436 0.500000 0.835088 Cl
0.310564 0.000000 0.164912 Cl
0.813092 0.000000 0.430635 Cl
0.686908 0.500000 0.569365 Cl
