pymatgen v2019.10.16 with grid density = 595 / atom
0
Monkhorst
4 4 2
