Te2 Br4
1.0
8.620130 0.000000 0.000000
0.000000 8.620130 0.000000
0.000000 0.000000 3.934635
Te Br
2 4
direct
0.000000 0.000000 0.000000 Te
0.500000 0.500000 0.500000 Te
0.336618 0.336618 0.000000 Br
0.663382 0.663382 0.000000 Br
0.163382 0.836618 0.500000 Br
0.836618 0.163382 0.500000 Br
