Rb2 Ge1 F6
1.0
0.000000 4.365021 4.365021
4.365021 0.000000 4.365021
4.365021 4.365021 0.000000
Rb Ge F
2 1 6
direct
0.250000 0.250000 0.250000 Rb
0.750000 0.750000 0.750000 Rb
0.000000 0.000000 0.000000 Ge
0.789573 0.210427 0.789573 F
0.210427 0.210427 0.789573 F
0.789573 0.789573 0.210427 F
0.210427 0.789573 0.210427 F
0.210427 0.789573 0.789573 F
0.789573 0.210427 0.210427 F
