Rb2 Al2 F8
1.0
5.214932 0.000000 0.000000
0.000000 5.214932 0.000000
0.000000 0.000000 6.409506
Rb Al F
2 2 8
direct
0.500000 0.000000 0.500000 Rb
0.000000 0.500000 0.500000 Rb
0.500000 0.500000 0.000000 Al
0.000000 0.000000 0.000000 Al
0.500000 0.500000 0.278503 F
0.000000 0.000000 0.721497 F
0.500000 0.500000 0.721497 F
0.000000 0.000000 0.278503 F
0.215170 0.715170 0.000000 F
0.284830 0.215170 0.000000 F
0.715170 0.784830 0.000000 F
0.784830 0.284830 0.000000 F
