pymatgen v2020.1.28 with grid density = 326 / atom
0
Monkhorst
2 2 6
