pymatgen v2020.1.28 with grid density = 1270 / atom
0
Gamma
4 4 3
