Fe8 Si16
1.0
3.886442 -4.938226 0.000000
3.886442 4.938226 0.000000
0.000000 0.000000 7.817765
Fe Si
8 16
direct
0.192504 0.192504 0.812312 Fe
0.307496 0.307496 0.312312 Fe
0.692504 0.692504 0.687688 Fe
0.807496 0.807496 0.187688 Fe
0.283483 0.716517 0.500000 Fe
0.216517 0.783483 0.000000 Fe
0.716517 0.283483 0.500000 Fe
0.783483 0.216517 0.000000 Fe
0.418306 0.671362 0.226828 Si
0.081694 0.828638 0.726828 Si
0.171362 0.918306 0.273172 Si
0.328638 0.581694 0.773172 Si
0.581694 0.328638 0.773172 Si
0.918306 0.171362 0.273172 Si
0.828638 0.081694 0.726828 Si
0.671362 0.418306 0.226828 Si
0.145569 0.401844 0.049783 Si
0.354431 0.098156 0.549783 Si
0.901844 0.645569 0.450217 Si
0.598156 0.854431 0.950217 Si
0.854431 0.598156 0.950217 Si
0.645569 0.901844 0.450217 Si
0.098156 0.354431 0.549783 Si
0.401844 0.145569 0.049783 Si
