Sr2 Zr2 O6
1.0
-2.918588 2.918588 4.224253
2.918588 -2.918588 4.224253
2.918588 2.918588 -4.224253
Sr Zr O
2 2 6
direct
0.250000 0.750000 0.500000 Sr
0.750000 0.250000 0.500000 Sr
0.500000 0.500000 0.000000 Zr
0.000000 0.000000 0.000000 Zr
0.690355 0.190355 0.880710 O
0.190355 0.309645 0.500000 O
0.809645 0.690355 0.500000 O
0.309645 0.809645 0.119290 O
0.750000 0.750000 0.000000 O
0.250000 0.250000 0.000000 O
