B2 N2
1.0
2.511600 0.000000 0.000000
-1.255800 2.175109 0.000000
0.000000 0.000000 8.267796
B N
2 2
direct
0.666667 0.333333 0.750000 B
0.333333 0.666667 0.250000 B
0.000000 0.000000 0.750000 N
0.000000 0.000000 0.250000 N
