Sn2 Cl2 F2
1.0
4.054978 0.000000 0.000000
0.000000 4.054978 0.000000
0.000000 0.000000 7.363870
Sn Cl F
2 2 2
direct
0.000000 0.500000 0.796390 Sn
0.500000 0.000000 0.203610 Sn
0.500000 0.000000 0.650633 Cl
0.000000 0.500000 0.349367 Cl
0.500000 0.500000 0.000000 F
0.000000 0.000000 0.000000 F
