pymatgen v2020.1.28 with grid density = 848 / atom
0
Gamma
5 5 3
