Os2 O8
1.0
2.375292 4.893730 0.000000
-2.375292 4.893730 0.000000
0.000000 3.923011 8.054331
Os O
2 8
direct
0.744173 0.255827 0.750000 Os
0.255827 0.744173 0.250000 Os
0.068806 0.160097 0.804824 O
0.839903 0.931194 0.695176 O
0.931194 0.839903 0.195176 O
0.160097 0.068806 0.304824 O
0.645350 0.577579 0.583691 O
0.422421 0.354650 0.916309 O
0.354650 0.422421 0.416309 O
0.577579 0.645350 0.083691 O
