K1 Y1 O2
1.0
6.345800 -1.745643 0.000000
6.345800 1.745643 0.000000
5.865598 0.000000 2.985165
K Y O
1 1 2
direct
0.000000 0.000000 0.000000 K
0.500000 0.500000 0.500000 Y
0.228682 0.228682 0.228682 O
0.771318 0.771318 0.771318 O
