Rb8 Sn4 Br24
1.0
11.004128 0.000000 0.000000
0.000000 11.004128 0.000000
0.000000 0.000000 11.004128
Rb Sn Br
8 4 24
direct
0.250000 0.750000 0.750000 Rb
0.250000 0.250000 0.750000 Rb
0.250000 0.250000 0.250000 Rb
0.250000 0.750000 0.250000 Rb
0.750000 0.750000 0.250000 Rb
0.750000 0.250000 0.250000 Rb
0.750000 0.250000 0.750000 Rb
0.750000 0.750000 0.750000 Rb
0.000000 0.000000 0.000000 Sn
0.000000 0.500000 0.500000 Sn
0.500000 0.000000 0.500000 Sn
0.500000 0.500000 0.000000 Sn
0.500000 0.741093 0.000000 Br
0.500000 0.258907 0.000000 Br
0.241093 0.000000 0.000000 Br
0.000000 0.000000 0.758907 Br
0.758907 0.000000 0.000000 Br
0.500000 0.000000 0.741093 Br
0.500000 0.241093 0.500000 Br
0.500000 0.758907 0.500000 Br
0.241093 0.500000 0.500000 Br
0.000000 0.500000 0.258907 Br
0.758907 0.500000 0.500000 Br
0.500000 0.500000 0.241093 Br
0.000000 0.741093 0.500000 Br
0.000000 0.258907 0.500000 Br
0.741093 0.000000 0.500000 Br
0.500000 0.000000 0.258907 Br
0.258907 0.000000 0.500000 Br
0.000000 0.000000 0.241093 Br
0.000000 0.241093 0.000000 Br
0.000000 0.758907 0.000000 Br
0.741093 0.500000 0.000000 Br
0.500000 0.500000 0.758907 Br
0.258907 0.500000 0.000000 Br
0.000000 0.500000 0.741093 Br
