Na4 V4 O8
1.0
-4.514012 2.612662 0.832341
-2.752566 -5.274405 1.624923
2.890081 0.000277 4.895778
Na V O
4 4 8
direct
0.999999 0.749993 0.500008 Na
0.000001 0.250000 0.499992 Na
0.500001 0.500007 0.499992 Na
0.499999 0.000000 0.500008 Na
0.500010 0.749931 0.999980 V
0.999991 0.500070 0.000020 V
0.499982 0.249879 0.000019 V
0.000018 0.000121 0.999981 V
0.764120 0.749892 0.798700 O
0.764202 0.249940 0.798707 O
0.264184 0.500116 0.798714 O
0.264137 0.000090 0.798689 O
0.235816 0.749884 0.201287 O
0.235863 0.249910 0.201311 O
0.735880 0.500108 0.201300 O
0.735798 0.000060 0.201293 O
