Ga4 Br12
1.0
6.236906 0.000000 0.000000
0.000000 9.518657 0.000000
0.000000 3.716984 11.202491
Ga Br
4 12
direct
0.003663 0.190739 0.953769 Ga
0.503663 0.809261 0.546231 Ga
0.996337 0.809261 0.046231 Ga
0.496337 0.190739 0.453769 Ga
0.782102 0.319284 0.801752 Br
0.282102 0.680716 0.698248 Br
0.217898 0.680716 0.198248 Br
0.717898 0.319284 0.301752 Br
0.230943 0.309279 0.046032 Br
0.730943 0.690721 0.453968 Br
0.769057 0.690721 0.953968 Br
0.269057 0.309279 0.546032 Br
0.795260 0.999757 0.108475 Br
0.295260 0.000243 0.391525 Br
0.204740 0.000243 0.891525 Br
0.704740 0.999757 0.608475 Br
