V2 O4
1.0
0.000000 0.000000 3.038141
4.515310 0.000000 0.000000
0.000000 4.515310 0.000000
V O
2 4
direct
0.500000 0.500000 0.500000 V
0.000000 0.000000 0.000000 V
0.500000 0.799236 0.200764 O
0.500000 0.200764 0.799236 O
0.000000 0.700764 0.700764 O
0.000000 0.299236 0.299236 O
