pymatgen v2020.1.28 with grid density = 382 / atom
0
Monkhorst
4 2 2
