Cs2 Ca1 H4
1.0
-2.312128 2.312128 7.788740
2.312128 -2.312128 7.788740
2.312128 2.312128 -7.788740
Cs Ca H
2 1 4
direct
0.647762 0.647762 0.000000 Cs
0.352238 0.352238 0.000000 Cs
0.000000 0.000000 0.000000 Ca
0.851309 0.851309 0.000000 H
0.148691 0.148691 0.000000 H
0.000000 0.500000 0.500000 H
0.500000 0.000000 0.500000 H
