pymatgen v2020.1.28 with grid density = 715 / atom
0
Gamma
6 6 3
