Sn2 Br2 F2
1.0
4.106257 0.000000 0.000000
0.000000 4.106257 0.000000
0.000000 0.000000 7.898286
Sn Br F
2 2 2
direct
0.000000 0.500000 0.811655 Sn
0.500000 0.000000 0.188345 Sn
0.500000 0.000000 0.653113 Br
0.000000 0.500000 0.346887 Br
0.500000 0.500000 0.000000 F
0.000000 0.000000 0.000000 F
