pymatgen v2020.1.28 with grid density = 1360 / atom
0
Gamma
5 4 3
