Mg4 Ti4 N8
1.0
4.283252 0.000000 0.000000
0.000000 6.124453 0.000000
0.000000 0.000000 7.120617
Mg Ti N
4 4 8
direct
0.750000 0.583952 0.119899 Mg
0.250000 0.416048 0.880101 Mg
0.250000 0.916048 0.619899 Mg
0.750000 0.083952 0.380101 Mg
0.750000 0.576956 0.628079 Ti
0.250000 0.423044 0.371921 Ti
0.250000 0.923044 0.128079 Ti
0.750000 0.076956 0.871921 Ti
0.250000 0.571344 0.611832 N
0.750000 0.428656 0.388168 N
0.750000 0.928656 0.111832 N
0.250000 0.071344 0.888168 N
0.250000 0.596950 0.140014 N
0.750000 0.403050 0.859986 N
0.750000 0.903050 0.640014 N
0.250000 0.096950 0.359986 N
