Ca1 I2
1.0
2.272690 -3.936415 0.000000
2.272690 3.936415 0.000000
0.000000 0.000000 8.056872
Ca I
1 2
direct
0.000000 0.000000 0.000000 Ca
0.333333 0.666667 0.219058 I
0.666667 0.333333 0.780942 I
