Nd4 Ga4 O12
1.0
5.471236 0.000000 0.000000
0.000000 5.615867 0.000000
0.000000 0.000000 7.801683
Nd Ga O
4 4 12
direct
0.986898 0.448198 0.750000 Nd
0.013102 0.551802 0.250000 Nd
0.513102 0.948198 0.750000 Nd
0.486898 0.051802 0.250000 Nd
0.500000 0.500000 0.500000 Ga
0.500000 0.500000 0.000000 Ga
0.000000 0.000000 0.500000 Ga
0.000000 0.000000 0.000000 Ga
0.708219 0.207060 0.953243 O
0.291781 0.792940 0.453243 O
0.791781 0.707060 0.953243 O
0.208219 0.292940 0.453243 O
0.708219 0.207060 0.546757 O
0.291781 0.792940 0.046757 O
0.791781 0.707060 0.546757 O
0.208219 0.292940 0.046757 O
0.912580 0.977234 0.250000 O
0.087420 0.022766 0.750000 O
0.587420 0.477234 0.250000 O
0.412580 0.522766 0.750000 O
