Y2 Sc2 O6
1.0
1.795295 -3.109542 0.000000
1.795295 3.109542 0.000000
0.000000 0.000000 12.444239
Y Sc O
2 2 6
direct
0.000000 0.000000 0.000000 Y
0.000000 0.000000 0.500000 Y
0.333333 0.666667 0.250000 Sc
0.666667 0.333333 0.750000 Sc
0.333333 0.666667 0.083093 O
0.333333 0.666667 0.416907 O
0.000000 0.000000 0.250000 O
0.000000 0.000000 0.750000 O
0.666667 0.333333 0.916907 O
0.666667 0.333333 0.583093 O
