pymatgen v2020.1.28 with grid density = 533 / atom
0
Gamma
5 3 3
