Pd1 S2 Cl6
1.0
4.755114 0.000000 0.000000
-0.225792 6.978366 0.000000
-1.070935 -2.124384 8.070847
Pd S Cl
1 2 6
direct
0.000000 0.000000 0.000000 Pd
0.293791 0.225951 0.206600 S
0.706209 0.774049 0.793400 S
0.745525 0.817841 0.567024 Cl
0.287626 0.128779 0.841316 Cl
0.712374 0.871221 0.158684 Cl
0.089941 0.481760 0.215566 Cl
0.910059 0.518240 0.784434 Cl
0.254475 0.182159 0.432976 Cl
