W2 O6
1.0
5.440348 0.000000 0.000000
0.000000 5.440348 0.000000
0.000000 0.000000 3.908073
W O
2 6
direct
0.000000 0.500000 0.961293 W
0.500000 0.000000 0.038707 W
0.000000 0.500000 0.491128 O
0.500000 0.000000 0.508872 O
0.250000 0.250000 0.000000 O
0.750000 0.250000 0.000000 O
0.750000 0.750000 0.000000 O
0.250000 0.750000 0.000000 O
