P2 F10
1.0
2.877644 -4.984226 0.000000
2.877644 4.984226 0.000000
0.000000 0.000000 6.378208
P F
2 10
direct
0.666667 0.333333 0.750000 P
0.333333 0.666667 0.250000 P
0.823158 0.646316 0.750000 F
0.176842 0.823158 0.250000 F
0.333333 0.666667 0.502649 F
0.666667 0.333333 0.002649 F
0.666667 0.333333 0.497351 F
0.333333 0.666667 0.997351 F
0.176842 0.353684 0.250000 F
0.823158 0.176842 0.750000 F
0.353684 0.176842 0.750000 F
0.646316 0.823158 0.250000 F
