pymatgen v2020.1.28 with grid density = 458 / atom
0
Gamma
4 4 4
