B2 I6
1.0
7.402430 0.000000 0.000000
-3.701215 6.410692 0.000000
0.000000 0.000000 8.834711
B I
2 6
direct
0.333333 0.666667 0.250000 B
0.666667 0.333333 0.750000 B
0.046627 0.378005 0.250000 I
0.668622 0.046627 0.750000 I
0.378005 0.331378 0.750000 I
0.621995 0.668622 0.250000 I
0.331378 0.953373 0.250000 I
0.953373 0.621995 0.750000 I
