Al4 I12
1.0
6.740740 0.000000 0.000000
0.000000 10.210997 0.000000
0.000000 4.101074 12.277548
Al I
4 12
direct
0.002848 0.186271 0.953978 Al
0.502848 0.813729 0.546022 Al
0.997152 0.813729 0.046022 Al
0.497152 0.186271 0.453978 Al
0.780503 0.318357 0.802728 I
0.280503 0.681643 0.697272 I
0.219497 0.681643 0.197272 I
0.719497 0.318357 0.302728 I
0.229493 0.312974 0.041598 I
0.729493 0.687026 0.458402 I
0.770507 0.687026 0.958402 I
0.270507 0.312974 0.541598 I
0.790550 0.001032 0.107836 I
0.290550 0.998968 0.392164 I
0.209450 0.998968 0.892164 I
0.709450 0.001032 0.607836 I
