V1 Cl2
1.0
3.655328 0.000000 0.000000
-1.827664 3.165607 0.000000
0.000000 0.000000 6.085968
V Cl
1 2
direct
0.000000 0.000000 0.000000 V
0.666667 0.333333 0.781010 Cl
0.333333 0.666667 0.218990 Cl
