pymatgen v2020.1.28 with grid density = 1133 / atom
0
Gamma
4 4 3
