W4 O12
1.0
5.358977 0.000000 0.000000
0.000000 5.414798 0.000000
0.000000 0.123255 7.723958
W O
4 12
direct
0.756011 0.251188 0.230313 W
0.256011 0.748812 0.269687 W
0.243989 0.748812 0.769687 W
0.743989 0.251188 0.730313 W
0.528128 0.529834 0.723369 O
0.196537 0.749435 0.504453 O
0.471872 0.470166 0.276631 O
0.528317 0.973068 0.276712 O
0.303463 0.749435 0.004453 O
0.471683 0.026932 0.723288 O
0.971872 0.529834 0.223369 O
0.028317 0.026932 0.223288 O
0.971683 0.973068 0.776712 O
0.028128 0.470166 0.776631 O
0.803463 0.250565 0.495547 O
0.696537 0.250565 0.995547 O
