Te1 Pb1
1.0
0.000000 3.282837 3.282837
3.282837 0.000000 3.282837
3.282837 3.282837 0.000000
Te Pb
1 1
direct
0.500000 0.500000 0.500000 Te
0.000000 0.000000 0.000000 Pb
