pymatgen v2020.1.28 with grid density = 471 / atom
0
Gamma
3 3 3
