Cs2 Sn1 Cl6
1.0
0.000000 5.332945 5.332945
5.332945 0.000000 5.332945
5.332945 5.332945 0.000000
Cs Sn Cl
2 1 6
direct
0.750000 0.750000 0.750000 Cs
0.250000 0.250000 0.250000 Cs
0.500000 0.500000 0.500000 Sn
0.732922 0.732922 0.267078 Cl
0.267078 0.732922 0.732922 Cl
0.732922 0.267078 0.732922 Cl
0.267078 0.267078 0.732922 Cl
0.732922 0.267078 0.267078 Cl
0.267078 0.732922 0.267078 Cl
