pymatgen v2019.10.16 with grid density = 405 / atom
0
Gamma
3 2 3
