Y4 Br12
1.0
6.842624 0.000000 -2.491160
0.000000 12.552255 0.000000
0.000000 0.000000 7.299215
Y Br
4 12
direct
0.500000 0.333218 0.000000 Y
0.500000 0.666782 0.000000 Y
0.000000 0.833218 0.000000 Y
0.000000 0.166782 0.000000 Y
0.760687 0.180703 0.232359 Br
0.760687 0.819297 0.232359 Br
0.789281 0.000000 0.760755 Br
0.210719 0.000000 0.239245 Br
0.239313 0.180703 0.767641 Br
0.239313 0.819297 0.767641 Br
0.260687 0.680703 0.232359 Br
0.260687 0.319297 0.232359 Br
0.289281 0.500000 0.760755 Br
0.710719 0.500000 0.239245 Br
0.739313 0.680703 0.767641 Br
0.739313 0.319297 0.767641 Br
