pymatgen v2019.10.16 with grid density = 487 / atom
0
Gamma
2 2 4
