W3 Cl18
1.0
11.274711 0.000000 0.000000
-5.637355 9.764186 0.000000
0.000000 0.000000 6.215370
W Cl
3 18
direct
0.666667 0.333333 0.537157 W
0.333333 0.666667 0.462843 W
0.000000 0.000000 0.000000 W
0.236722 0.763278 0.676751 Cl
0.236722 0.473444 0.676751 Cl
0.526556 0.763278 0.676751 Cl
0.096497 0.903503 0.214348 Cl
0.096497 0.192995 0.214348 Cl
0.807005 0.903503 0.214348 Cl
0.192995 0.096497 0.785652 Cl
0.903503 0.807005 0.785652 Cl
0.903503 0.096497 0.785652 Cl
0.429771 0.570229 0.248155 Cl
0.429771 0.859542 0.248155 Cl
0.140458 0.570229 0.248155 Cl
0.859542 0.429771 0.751845 Cl
0.570229 0.140458 0.751845 Cl
0.570229 0.429771 0.751845 Cl
0.763278 0.236722 0.323249 Cl
0.763278 0.526556 0.323249 Cl
0.473444 0.236722 0.323249 Cl
