Be4 I8
1.0
6.143261 0.000000 0.000000
0.000000 6.505425 0.000000
0.000000 0.000000 12.173647
Be I
4 8
direct
0.750000 0.000000 0.000000 Be
0.250000 0.000000 0.000000 Be
0.250000 0.500000 0.500000 Be
0.750000 0.500000 0.500000 Be
0.500000 0.295014 0.609403 I
0.000000 0.704986 0.609403 I
0.500000 0.795014 0.890597 I
0.000000 0.204986 0.890597 I
0.000000 0.795014 0.109403 I
0.500000 0.204986 0.109403 I
0.000000 0.295014 0.390597 I
0.500000 0.704986 0.390597 I
