P4 Cl12
1.0
6.523152 0.000000 0.000000
0.000000 8.987533 0.000000
0.000000 0.000000 10.074485
P Cl
4 12
direct
0.923728 0.972501 0.750000 P
0.423728 0.527499 0.250000 P
0.576272 0.472501 0.750000 P
0.076272 0.027499 0.250000 P
0.744751 0.902858 0.907885 Cl
0.244751 0.597142 0.092115 Cl
0.755249 0.402858 0.592115 Cl
0.255249 0.097142 0.407885 Cl
0.851338 0.190076 0.250000 Cl
0.351338 0.309924 0.750000 Cl
0.648662 0.690076 0.250000 Cl
0.148662 0.809924 0.750000 Cl
0.744751 0.902858 0.592115 Cl
0.244751 0.597142 0.407885 Cl
0.755249 0.402858 0.907885 Cl
0.255249 0.097142 0.092115 Cl
