pymatgen v2020.1.28 with grid density = 611 / atom
0
Monkhorst
4 4 4
