pymatgen v2019.10.16 with grid density = 1024 / atom
0
Gamma
5 1 3
