pymatgen v2020.1.28 with grid density = 1571 / atom
0
Gamma
5 5 5
