Li2 Bi2 S4
1.0
-2.789458 2.789458 5.637873
2.789458 -2.789458 5.637873
2.789458 2.789458 -5.637873
Li Bi S
2 2 4
direct
0.000000 0.000000 0.000000 Li
0.750000 0.250000 0.500000 Li
0.250000 0.750000 0.500000 Bi
0.500000 0.500000 0.000000 Bi
0.999309 0.499309 0.500000 S
0.750691 0.750691 0.000000 S
0.500691 0.000691 0.500000 S
0.249309 0.249309 0.000000 S
