B8 F24
1.0
4.619851 0.000000 -1.461566
0.000000 14.271715 0.000000
0.000000 0.000000 7.527564
B F
8 24
direct
0.863159 0.864164 0.233422 B
0.136841 0.364164 0.266578 B
0.523719 0.116127 0.278896 B
0.523719 0.383873 0.778896 B
0.476281 0.616127 0.221104 B
0.863159 0.635836 0.733422 B
0.476281 0.883873 0.721104 B
0.136841 0.135836 0.766578 B
0.749428 0.715897 0.769807 F
0.070939 0.636960 0.652772 F
0.929061 0.136960 0.847228 F
0.766551 0.555113 0.780140 F
0.250572 0.215897 0.730193 F
0.739311 0.146300 0.423144 F
0.260689 0.646300 0.076856 F
0.295137 0.425030 0.806331 F
0.704863 0.925030 0.693669 F
0.749428 0.784103 0.269807 F
0.539910 0.371770 0.606849 F
0.766551 0.944887 0.280140 F
0.233449 0.055113 0.719860 F
0.260689 0.853700 0.576856 F
0.929061 0.363040 0.347228 F
0.460090 0.628230 0.393151 F
0.233449 0.444887 0.219860 F
0.070939 0.863040 0.152772 F
0.460090 0.871770 0.893151 F
0.250572 0.284103 0.230193 F
0.704863 0.574970 0.193669 F
0.539910 0.128230 0.106849 F
0.739311 0.353700 0.923144 F
0.295137 0.074970 0.306331 F
