pymatgen v2020.1.28 with grid density = 674 / atom
0
Gamma
3 2 3
