Rb8 Ni4 O8
1.0
4.035376 0.015822 6.095505
-7.674916 -4.004157 3.644127
0.733918 -8.008315 2.429418
Rb Ni O
8 4 8
direct
0.687467 0.671867 0.492200 Rb
0.687467 0.671867 0.992200 Rb
0.687467 0.171867 0.242200 Rb
0.687467 0.171867 0.742200 Rb
0.312533 0.328133 0.507800 Rb
0.312533 0.328133 0.007800 Rb
0.312533 0.828133 0.257800 Rb
0.312533 0.828133 0.757800 Rb
0.000000 0.500000 0.250000 Ni
0.000000 0.000000 0.500000 Ni
0.000000 0.500000 0.750000 Ni
0.000000 0.000000 0.000000 Ni
0.742615 0.435654 0.346519 O
0.742615 0.435654 0.846519 O
0.742615 0.935654 0.096519 O
0.742615 0.935654 0.596519 O
0.257385 0.564346 0.653481 O
0.257385 0.564346 0.153481 O
0.257385 0.064346 0.403481 O
0.257385 0.064346 0.903481 O
