pymatgen v2019.10.16 with grid density = 761 / atom
0
Gamma
8 8 1
