Cs1 Sr1 F3
1.0
4.833151 0.000000 0.000000
0.000000 4.833151 0.000000
0.000000 0.000000 4.833151
Cs Sr F
1 1 3
direct
0.000000 0.000000 0.000000 Cs
0.500000 0.500000 0.500000 Sr
0.000000 0.500000 0.500000 F
0.500000 0.000000 0.500000 F
0.500000 0.500000 0.000000 F
