Cs1 Au3 Se2
1.0
3.233759 -5.601036 0.000000
3.233759 5.601036 0.000000
0.000000 0.000000 5.743847
Cs Au Se
1 3 2
direct
0.000000 0.000000 0.500000 Cs
0.000000 0.500000 0.000000 Au
0.500000 0.000000 0.000000 Au
0.500000 0.500000 0.000000 Au
0.333333 0.666667 0.717315 Se
0.666667 0.333333 0.282685 Se
