pymatgen v2020.1.28 with grid density = 1305 / atom
0
Monkhorst
6 6 6
