Mg3 Cl6
1.0
3.675930 0.000000 0.000000
-1.837965 3.183449 0.000000
0.000000 0.000000 19.721985
Mg Cl
3 6
direct
0.000000 0.000000 0.000000 Mg
0.666667 0.333333 0.333333 Mg
0.333333 0.666667 0.666667 Mg
0.666667 0.333333 0.069629 Cl
0.000000 0.000000 0.263704 Cl
0.333333 0.666667 0.402963 Cl
0.666667 0.333333 0.597037 Cl
0.000000 0.000000 0.736296 Cl
0.333333 0.666667 0.930371 Cl
