La1 Al1 O3
1.0
3.811266 0.000000 0.000000
0.000000 3.811266 0.000000
0.000000 0.000000 3.811266
La Al O
1 1 3
direct
0.500000 0.500000 0.500000 La
0.000000 0.000000 0.000000 Al
0.000000 0.500000 0.000000 O
0.000000 0.000000 0.500000 O
0.500000 0.000000 0.000000 O
