Cs2 Na1 Y1 F6
1.0
0.000000 4.600704 4.600704
4.600704 0.000000 4.600704
4.600704 4.600704 0.000000
Cs Na Y F
2 1 1 6
direct
0.250000 0.250000 0.250000 Cs
0.750000 0.750000 0.750000 Cs
0.500000 0.500000 0.500000 Na
0.000000 0.000000 0.000000 Y
0.760719 0.760719 0.239281 F
0.760719 0.239281 0.760719 F
0.239281 0.760719 0.239281 F
0.760719 0.239281 0.239281 F
0.239281 0.239281 0.760719 F
0.239281 0.760719 0.760719 F
