Be4 Cl8
1.0
5.247062 0.000000 0.000000
0.000000 5.737912 0.000000
0.000000 0.000000 10.631976
Be Cl
4 8
direct
0.250000 0.000000 0.000000 Be
0.750000 0.000000 0.000000 Be
0.750000 0.500000 0.500000 Be
0.250000 0.500000 0.500000 Be
0.000000 0.691940 0.396518 Cl
0.500000 0.808060 0.103482 Cl
0.500000 0.308060 0.396518 Cl
0.000000 0.191940 0.103482 Cl
0.500000 0.191940 0.896518 Cl
0.000000 0.308060 0.603482 Cl
0.000000 0.808060 0.896518 Cl
0.500000 0.691940 0.603482 Cl
