Na1 Ta1 O3
1.0
3.983101 0.000000 0.000000
0.000000 3.983101 0.000000
0.000000 0.000000 3.983101
Na Ta O
1 1 3
direct
0.500000 0.500000 0.500000 Na
0.000000 0.000000 0.000000 Ta
0.000000 0.000000 0.500000 O
0.000000 0.500000 0.000000 O
0.500000 0.000000 0.000000 O
