pymatgen v2020.1.28 with grid density = 545 / atom
0
Monkhorst
4 4 4
