In2 Cl6
1.0
9.644962 0.000000 0.000000
-4.822481 8.352782 0.000000
0.000000 0.000000 3.434286
In Cl
2 6
direct
0.666667 0.333333 0.250000 In
0.333333 0.666667 0.750000 In
0.781984 0.218016 0.750000 Cl
0.436032 0.218016 0.750000 Cl
0.781984 0.563968 0.750000 Cl
0.218016 0.781984 0.250000 Cl
0.563968 0.781984 0.250000 Cl
0.218016 0.436032 0.250000 Cl
