pymatgen v2020.1.28 with grid density = 1098 / atom
0
Monkhorst
4 4 6
