Sn4 Cl8
1.0
4.353743 0.000000 0.000000
0.000000 8.045885 0.000000
0.000000 0.000000 10.055936
Sn Cl
4 8
direct
0.750000 0.271487 0.051234 Sn
0.250000 0.728513 0.948766 Sn
0.250000 0.228513 0.551234 Sn
0.750000 0.771487 0.448766 Sn
0.250000 0.009227 0.357338 Cl
0.250000 0.647129 0.588569 Cl
0.250000 0.509227 0.142662 Cl
0.750000 0.990773 0.642662 Cl
0.750000 0.352871 0.411431 Cl
0.750000 0.852871 0.088569 Cl
0.250000 0.147129 0.911431 Cl
0.750000 0.490773 0.857338 Cl
