pymatgen v2019.10.16 with grid density = 429 / atom
0
Monkhorst
2 2 2
