pymatgen v2020.1.28 with grid density = 1252 / atom
0
Monkhorst
8 8 2
