Sr2 Hf1 O4
1.0
-2.057863 2.057863 6.415834
2.057863 -2.057863 6.415834
2.057863 2.057863 -6.415834
Sr Hf O
2 1 4
direct
0.647733 0.647733 0.000000 Sr
0.352267 0.352267 0.000000 Sr
0.000000 0.000000 0.000000 Hf
0.500000 0.000000 0.500000 O
0.000000 0.500000 0.500000 O
0.836080 0.836080 0.000000 O
0.163920 0.163920 0.000000 O
