Sb4 Cl12
1.0
6.947730 0.000000 0.000000
0.000000 8.869212 0.000000
0.000000 0.000000 9.353764
Sb Cl
4 12
direct
0.988356 0.001435 0.750000 Sb
0.488356 0.498565 0.250000 Sb
0.511644 0.501435 0.750000 Sb
0.011644 0.998565 0.250000 Sb
0.125919 0.167634 0.432928 Cl
0.625919 0.332366 0.567072 Cl
0.374081 0.667634 0.067072 Cl
0.874081 0.832366 0.932928 Cl
0.687492 0.083063 0.250000 Cl
0.187492 0.416937 0.750000 Cl
0.812508 0.583063 0.250000 Cl
0.312508 0.916937 0.750000 Cl
0.125919 0.167634 0.067072 Cl
0.625919 0.332366 0.932928 Cl
0.374081 0.667634 0.432928 Cl
0.874081 0.832366 0.567072 Cl
