pymatgen v2020.1.28 with grid density = 1310 / atom
0
Gamma
7 7 2
