Lu2 Ga2 O6
1.0
1.728956 -2.994639 0.000000
1.728956 2.994639 0.000000
0.000000 0.000000 11.705323
Lu Ga O
2 2 6
direct
0.000000 0.000000 0.000000 Lu
0.000000 0.000000 0.500000 Lu
0.333333 0.666667 0.250000 Ga
0.666667 0.333333 0.750000 Ga
0.333333 0.666667 0.085597 O
0.000000 0.000000 0.250000 O
0.333333 0.666667 0.414403 O
0.000000 0.000000 0.750000 O
0.666667 0.333333 0.914403 O
0.666667 0.333333 0.585597 O
