Ti2 I8
1.0
4.263814 7.073977 0.000000
-4.263814 7.073977 0.000000
0.000000 0.174768 7.003083
Ti I
2 8
direct
0.656862 0.343138 0.750000 Ti
0.343138 0.656862 0.250000 Ti
0.287752 0.496045 0.931680 I
0.503955 0.712248 0.568320 I
0.712248 0.503955 0.068320 I
0.496045 0.287752 0.431680 I
0.977852 0.266572 0.609571 I
0.733428 0.022148 0.890429 I
0.022148 0.733428 0.390429 I
0.266572 0.977852 0.109571 I
