Na4 Cu2 P2
1.0
3.471642 -4.345432 0.000000
3.471642 4.345432 0.000000
0.000000 0.000000 5.246927
Na Cu P
4 2 2
direct
0.031145 0.683133 0.250000 Na
0.968855 0.316867 0.750000 Na
0.683133 0.031145 0.250000 Na
0.316867 0.968855 0.750000 Na
0.500000 0.500000 0.500000 Cu
0.500000 0.500000 0.000000 Cu
0.762099 0.762099 0.750000 P
0.237901 0.237901 0.250000 P
