S1 F6
1.0
-2.994852 2.994852 2.994852
2.994852 -2.994852 2.994852
2.994852 2.994852 -2.994852
S F
1 6
direct
0.000000 0.000000 0.000000 S
0.733370 0.000000 0.733370 F
0.266630 0.000000 0.266630 F
0.000000 0.266630 0.266630 F
0.000000 0.733370 0.733370 F
0.266630 0.266630 0.000000 F
0.733370 0.733370 0.000000 F
