Ba1 Zr1 O3
1.0
4.255689 0.000000 0.000000
0.000000 4.255689 0.000000
0.000000 0.000000 4.255689
Ba Zr O
1 1 3
direct
0.000000 0.000000 0.000000 Ba
0.500000 0.500000 0.500000 Zr
0.500000 0.000000 0.500000 O
0.500000 0.500000 0.000000 O
0.000000 0.500000 0.500000 O
