pymatgen v2019.10.16 with grid density = 430 / atom
0
Gamma
3 2 2
