Ca4 Zr4 O12
1.0
5.638372 0.000000 0.000000
0.000000 5.833226 0.000000
0.000000 0.000000 8.106924
Ca Zr O
4 4 12
direct
0.013125 0.949205 0.250000 Ca
0.513125 0.550795 0.750000 Ca
0.486875 0.449205 0.250000 Ca
0.986875 0.050795 0.750000 Ca
0.000000 0.500000 0.000000 Zr
0.500000 0.000000 0.000000 Zr
0.500000 0.000000 0.500000 Zr
0.000000 0.500000 0.500000 Zr
0.303404 0.699277 0.442244 O
0.803404 0.800723 0.557756 O
0.196596 0.199277 0.057756 O
0.696596 0.300723 0.942244 O
0.696596 0.300723 0.557756 O
0.196596 0.199277 0.442244 O
0.803404 0.800723 0.942244 O
0.303404 0.699277 0.057756 O
0.608804 0.042656 0.250000 O
0.108804 0.457344 0.750000 O
0.891196 0.542656 0.250000 O
0.391196 0.957344 0.750000 O
