pymatgen v2020.1.28 with grid density = 1325 / atom
0
Gamma
4 4 3
