pymatgen v2020.1.28 with grid density = 301 / atom
0
Gamma
3 2 1
