K4 Ag2 P2
1.0
3.874485 -4.971030 0.000000
3.874485 4.971030 0.000000
0.000000 0.000000 6.050528
K Ag P
4 2 2
direct
0.968437 0.312202 0.750000 K
0.312202 0.968437 0.750000 K
0.031563 0.687798 0.250000 K
0.687798 0.031563 0.250000 K
0.500000 0.500000 0.500000 Ag
0.500000 0.500000 0.000000 Ag
0.751778 0.751778 0.750000 P
0.248222 0.248222 0.250000 P
