Ba4 Zr4 S12
1.0
7.088308 0.000000 0.000000
0.000000 7.154960 0.000000
0.000000 0.000000 10.076777
Ba Zr S
4 4 12
direct
0.008603 0.042741 0.250000 Ba
0.508603 0.457259 0.750000 Ba
0.491397 0.542741 0.250000 Ba
0.991397 0.957259 0.750000 Ba
0.500000 0.000000 0.000000 Zr
0.000000 0.500000 0.000000 Zr
0.000000 0.500000 0.500000 Zr
0.500000 0.000000 0.500000 Zr
0.560908 0.993829 0.250000 S
0.060908 0.506171 0.750000 S
0.939092 0.493829 0.250000 S
0.439092 0.006171 0.750000 S
0.786623 0.213183 0.968211 S
0.286623 0.286817 0.031789 S
0.713377 0.713183 0.531789 S
0.213377 0.786817 0.468211 S
0.213377 0.786817 0.031789 S
0.713377 0.713183 0.968211 S
0.286623 0.286817 0.468211 S
0.786623 0.213183 0.531789 S
