pymatgen v2019.10.16 with grid density = 966 / atom
0
Gamma
7 6 2
