Al2 Cl2 O2
1.0
3.169900 0.000000 0.000000
0.000000 3.660756 0.000000
0.000000 0.000000 8.495486
Al Cl O
2 2 2
direct
0.500000 0.000000 0.902064 Al
0.000000 0.500000 0.097936 Al
0.000000 0.000000 0.703682 Cl
0.500000 0.500000 0.296318 Cl
0.500000 0.500000 0.954319 O
0.000000 0.000000 0.045681 O
