K2 Tc2 O8
1.0
-2.894506 2.894506 6.548378
2.894506 -2.894506 6.548378
2.894506 2.894506 -6.548378
K Tc O
2 2 8
direct
0.500000 0.500000 0.000000 K
0.250000 0.750000 0.500000 K
0.000000 0.000000 0.000000 Tc
0.750000 0.250000 0.500000 Tc
0.703442 0.036344 0.891343 O
0.786344 0.395000 0.832902 O
0.562099 0.953442 0.167098 O
0.145000 0.812099 0.108657 O
0.605000 0.437901 0.391343 O
0.187901 0.296558 0.332902 O
0.963656 0.855000 0.667098 O
0.046558 0.213656 0.608657 O
