Na4 Ti5 O12
1.0
2.686036 -4.652351 0.000000
2.686036 4.652351 0.000000
0.000000 0.000000 9.653030
Na Ti O
4 5 12
direct
0.666667 0.333333 0.900298 Na
0.333333 0.666667 0.099702 Na
0.000000 0.000000 0.311691 Na
0.000000 0.000000 0.688309 Na
0.333333 0.666667 0.472982 Ti
0.000000 0.000000 0.000000 Ti
0.333333 0.666667 0.783410 Ti
0.666667 0.333333 0.527018 Ti
0.666667 0.333333 0.216590 Ti
0.429545 0.015801 0.379689 O
0.586256 0.570455 0.379689 O
0.984199 0.413744 0.379689 O
0.767657 0.100304 0.122237 O
0.899696 0.667353 0.122237 O
0.015801 0.586256 0.620311 O
0.667353 0.767657 0.877763 O
0.100304 0.332647 0.877763 O
0.570455 0.984199 0.620311 O
0.332647 0.232343 0.122237 O
0.413744 0.429545 0.620311 O
0.232343 0.899696 0.877763 O
