pymatgen v2019.10.16 with grid density = 316 / atom
0
Monkhorst
4 2 2
