I4 Br4
1.0
5.413232 0.000000 0.000000
0.000000 8.428774 0.000000
0.000000 0.000000 8.816360
I Br
4 4
direct
0.500000 0.000000 0.500000 I
0.500000 0.000000 0.000000 I
0.000000 0.500000 0.500000 I
0.000000 0.500000 0.000000 I
0.799039 0.000000 0.250000 Br
0.200961 0.000000 0.750000 Br
0.299039 0.500000 0.250000 Br
0.700961 0.500000 0.750000 Br
