P4 Br12
1.0
6.961028 0.000000 0.000000
0.000000 9.355272 0.000000
0.000000 0.000000 10.970765
P Br
4 12
direct
0.028399 0.049414 0.250000 P
0.528399 0.450586 0.750000 P
0.471601 0.549414 0.250000 P
0.971601 0.950586 0.750000 P
0.138460 0.178739 0.091558 Br
0.638460 0.321261 0.908442 Br
0.361540 0.678739 0.408442 Br
0.861540 0.821261 0.591558 Br
0.861540 0.821261 0.908442 Br
0.361540 0.678739 0.091558 Br
0.638460 0.321261 0.591558 Br
0.138460 0.178739 0.408442 Br
0.713560 0.104587 0.250000 Br
0.213560 0.395413 0.750000 Br
0.786440 0.604587 0.250000 Br
0.286440 0.895413 0.750000 Br
