ALGO = Fast
EDIFF = 0.00015000000000000001
ENCUT = 520
IBRION = 2
ICHARG = 1
ISIF = 3
ISMEAR = -5
ISPIN = 2
LORBIT = 11
LREAL = Auto
LWAVE = False
MAGMOM = 1*4.447 2*0.097
NELM = 100
NSW = 99
PREC = Accurate
SIGMA = 0.05
