Mn1 Cl2
1.0
6.621862 -1.858341 0.000000
6.621862 1.858341 0.000000
6.100343 0.000000 3.176210
Mn Cl
1 2
direct
0.000000 0.000000 0.000000 Mn
0.737219 0.737219 0.737219 Cl
0.262781 0.262781 0.262781 Cl
