pymatgen v2019.10.16 with grid density = 401 / atom
0
Gamma
6 6 3
