B2 Cl6
1.0
6.477791 0.000000 0.000000
-3.238895 5.609931 0.000000
0.000000 0.000000 7.655882
B Cl
2 6
direct
0.333333 0.666667 0.250000 B
0.666667 0.333333 0.750000 B
0.068786 0.393166 0.250000 Cl
0.675620 0.068786 0.750000 Cl
0.393166 0.324380 0.750000 Cl
0.606834 0.675620 0.250000 Cl
0.324380 0.931214 0.250000 Cl
0.931214 0.606834 0.750000 Cl
