pymatgen v2019.10.16 with grid density = 453 / atom
0
Gamma
2 3 3
