pymatgen v2019.10.16 with grid density = 303 / atom
0
Gamma
3 3 2
