pymatgen v2020.1.28 with grid density = 868 / atom
0
Monkhorst
4 4 4
