Na1 Ta1 N2
1.0
5.777962 -1.569020 0.000000
5.777962 1.569020 0.000000
5.351891 0.000000 2.684014
Na Ta N
1 1 2
direct
0.500000 0.500000 0.500000 Na
0.000000 0.000000 0.000000 Ta
0.730841 0.730841 0.730841 N
0.269159 0.269159 0.269159 N
